HmaxDs = 0.000000
HmaxUB_percent = 1.143028
HmaxUB_real = 2767.545115
FTnetDs = 1.000000
FTnetUB_percent = 1.867926
FTnetUB_real = 6871.539376
TIFgap = 0.400000
LimCIPF = 74.75492388
SCIP version 1.1.0 [precision: 8 byte] [memory: block] [mode: optimized] [LP solver: Clp 1.8.2]
Copyright (c) 2002-2008 Konrad-Zuse-Zentrum fuer Informationstechnik Berlin (ZIB)

reading user parameter file </home/fabio/docs/hierarquia/models/scip.set>

read problem <data.N30.I1.s1.cluster3.T7.GL3.W5.TIFgap0.4.mps.gz>
============

original problem has 2546 variables (1281 bin, 0 int, 0 impl, 1265 cont) and 532 constraints

solve problem
=============

presolving:
(round 1) 3 del vars, 3 del conss, 154 chg bounds, 0 chg sides, 180 chg coeffs, 0 upgd conss, 0 impls, 210 clqs
(round 2) 5 del vars, 3 del conss, 154 chg bounds, 1 chg sides, 180 chg coeffs, 0 upgd conss, 0 impls, 210 clqs
(round 3) 5 del vars, 3 del conss, 154 chg bounds, 3 chg sides, 180 chg coeffs, 0 upgd conss, 0 impls, 210 clqs
(round 4) 5 del vars, 4 del conss, 154 chg bounds, 3 chg sides, 180 chg coeffs, 211 upgd conss, 0 impls, 210 clqs
   (0.5s) probing: 311/1281 (24.3%) - 0 fixings, 0 aggregations, 15105 implications, 0 bound changes
   (0.5s) probing aborted: 100/100 successive totally useless probings
presolving (5 rounds):
 5 deleted vars, 4 deleted constraints, 154 tightened bounds, 0 added holes, 3 changed sides, 180 changed coefficients
 30210 implications, 210 cliques
presolved problem has 2541 variables (1281 bin, 0 int, 0 impl, 1260 cont) and 528 constraints
      1 constraints of type <knapsack>
    210 constraints of type <setppc>
    317 constraints of type <linear>
Presolving Time: 0.50

 time | node  | left  |LP iter| mem |mdpt |frac |vars |cons |ccons|cols |rows |cuts |confs|strbr|  dualbound   | primalbound  |  gap   
  0.7s|     1 |     0 |   957 |6433k|   0 | 246 |2541 | 528 | 528 |2541 | 528 |   0 |   0 |   0 | 2.268923e+01 |      --      |    Inf 
  2.5s|     1 |     0 |  6558 |6954k|   0 | 238 |2541 | 528 | 528 |2541 | 533 |   5 |   0 |   0 | 2.806598e+01 |      --      |    Inf 
  3.4s|     1 |     0 |  7126 |7193k|   0 | 233 |2541 | 528 | 528 |2541 | 579 |  51 |   0 |   0 | 3.255786e+01 |      --      |    Inf 
  4.2s|     1 |     0 |  7766 |7407k|   0 | 225 |2541 | 528 | 528 |2541 | 619 |  91 |   0 |   0 | 4.245852e+01 |      --      |    Inf 
  5.2s|     1 |     0 |  8165 |7509k|   0 | 215 |2541 | 528 | 528 |2541 | 642 | 114 |   0 |   0 | 4.438201e+01 |      --      |    Inf 
  6.5s|     1 |     0 |  8695 |7588k|   0 | 244 |2541 | 528 | 528 |2541 | 659 | 131 |   0 |   0 | 4.706926e+01 |      --      |    Inf 
  7.9s|     1 |     0 |  9032 |7633k|   0 | 235 |2541 | 528 | 528 |2541 | 672 | 144 |   0 |   0 | 4.808625e+01 |      --      |    Inf 
  9.2s|     1 |     0 |  9179 |7657k|   0 | 220 |2541 | 528 | 528 |2541 | 678 | 150 |   0 |   0 | 4.834889e+01 |      --      |    Inf 
 10.4s|     1 |     0 |  9433 |7680k|   0 | 227 |2541 | 528 | 528 |2541 | 685 | 157 |   0 |   0 | 4.881518e+01 |      --      |    Inf 
 11.5s|     1 |     0 |  9554 |7694k|   0 | 232 |2541 | 528 | 528 |2541 | 688 | 160 |   0 |   0 | 4.892935e+01 |      --      |    Inf 
 12.9s|     1 |     0 |  9777 |7717k|   0 | 209 |2541 | 528 | 528 |2541 | 693 | 165 |   0 |   0 | 4.966233e+01 |      --      |    Inf 
 18.5s|     1 |     2 |  9883 |7734k|   0 | 209 |2541 | 528 | 528 |2541 | 693 | 165 |   0 |  17 | 4.966233e+01 |      --      |    Inf 
  127s|   100 |    70 |110364 |8144k|  17 | 137 |2541 | 575 | 382 |2541 | 610 | 165 |  47 |1154 | 5.101062e+01 |      --      |    Inf 
(node 177) unresolved numerical troubles in LP 852
  183s|   200 |   108 |195323 |8420k|  17 | 184 |2541 | 615 | 491 |2541 | 610 | 165 |  87 |1485 | 5.116409e+01 |      --      |    Inf 
(node 244) unresolved numerical troubles in LP 940
  309s|   300 |   149 |349656 |8651k|  25 | 176 |2541 | 645 | 448 |2541 | 610 | 165 | 117 |1799 | 5.116409e+01 |      --      |    Inf 
(node 355) unresolved numerical troubles in LP 1408
(node 361) unresolved numerical troubles in LP 1424
(node 388) unresolved numerical troubles in LP 1530
 time | node  | left  |LP iter| mem |mdpt |frac |vars |cons |ccons|cols |rows |cuts |confs|strbr|  dualbound   | primalbound  |  gap   
  375s|   400 |   193 |453827 |8873k|  27 | 109 |2541 | 669 | 421 |2541 | 610 | 165 | 141 |2044 | 5.116409e+01 |      --      |    Inf 
  429s|   500 |   235 |530930 |9057k|  27 |  92 |2541 | 708 | 358 |2541 | 610 | 165 | 181 |2338 | 5.116409e+01 |      --      |    Inf 
  492s|   600 |   271 |624762 |9229k|  37 | 157 |2541 | 735 | 464 |2541 | 610 | 165 | 208 |2651 | 5.116409e+01 |      --      |    Inf 
(node 602) unresolved numerical troubles in LP 1860
  531s|   700 |   294 |686772 |9343k|  43 |  74 |2541 | 743 | 307 |2541 | 610 | 165 | 220 |2857 | 5.116409e+01 |      --      |    Inf 
  580s|   800 |   330 |758937 |9569k|  43 | 117 |2541 | 778 | 402 |2541 | 610 | 165 | 259 |3119 | 5.144011e+01 |      --      |    Inf 
  596s|   900 |   366 |788392 |9744k|  46 | 143 |2541 | 788 | 499 |2541 | 610 | 165 | 269 |3167 | 5.144011e+01 |      --      |    Inf 
  629s|  1000 |   394 |836365 |9923k|  46 |   - |2541 | 819 | 348 |2541 | 610 | 165 | 302 |3278 | 5.144011e+01 |      --      |    Inf 
  649s|  1100 |   434 |875549 |  10M|  46 |   - |2541 | 834 | 386 |2541 | 610 | 165 | 317 |3300 | 5.152712e+01 |      --      |    Inf 
  681s|  1200 |   466 |927096 |  10M|  46 | 144 |2541 | 850 | 443 |2541 | 610 | 165 | 333 |3424 | 5.152712e+01 |      --      |    Inf 
  711s|  1300 |   484 |975126 |  10M|  46 |   - |2541 | 853 | 423 |2541 | 610 | 165 | 339 |3608 | 5.174948e+01 |      --      |    Inf 
  738s|  1400 |   536 |  1013k|  10M|  46 |   - |2541 | 868 | 363 |2541 | 610 | 165 | 354 |3761 | 5.192192e+01 |      --      |    Inf 
  778s|  1500 |   560 |  1078k|  10M|  46 |   - |2541 | 868 | 319 |2541 | 610 | 165 | 354 |3854 | 5.192192e+01 |      --      |    Inf 
  812s|  1600 |   587 |  1142k|  10M|  46 |  90 |2541 | 866 | 331 |2541 | 610 | 165 | 354 |3938 | 5.192192e+01 |      --      |    Inf 
  836s|  1700 |   605 |  1188k|  10M|  46 | 152 |2541 | 870 | 452 |2541 | 610 | 165 | 361 |4044 | 5.192192e+01 |      --      |    Inf 
  877s|  1800 |   632 |  1251k|  11M|  46 | 138 |2541 | 880 | 461 |2541 | 610 | 165 | 374 |4172 | 5.192192e+01 |      --      |    Inf 
 time | node  | left  |LP iter| mem |mdpt |frac |vars |cons |ccons|cols |rows |cuts |confs|strbr|  dualbound   | primalbound  |  gap   
  934s|  1900 |   664 |  1313k|  11M|  46 | 137 |2541 | 883 | 537 |2541 | 610 | 165 | 379 |4344 | 5.192192e+01 |      --      |    Inf 
(node 1977) unresolved numerical troubles in LP 3787
  968s|  2000 |   697 |  1372k|  11M|  46 | 192 |2541 | 887 | 522 |2541 | 610 | 165 | 387 |4549 | 5.215539e+01 |      --      |    Inf 
(node 2001) unresolved numerical troubles in LP 3827
 1028s|  2100 |   726 |  1465k|  11M|  46 | 125 |2541 | 914 | 403 |2541 | 610 | 165 | 417 |4858 | 5.215539e+01 |      --      |    Inf 
 1067s|  2200 |   750 |  1530k|  11M|  46 | 168 |2541 | 937 | 479 |2541 | 610 | 165 | 445 |5060 | 5.218291e+01 |      --      |    Inf 
 1096s|  2300 |   790 |  1578k|  11M|  46 | 101 |2541 | 961 | 387 |2541 | 610 | 165 | 473 |5198 | 5.233124e+01 |      --      |    Inf 
 1125s|  2400 |   826 |  1623k|  12M|  46 |  76 |2541 | 981 | 389 |2541 | 610 | 165 | 495 |5333 | 5.257424e+01 |      --      |    Inf 
(node 2470) unresolved numerical troubles in LP 4441
 1170s|  2500 |   854 |  1716k|  12M|  46 |   - |2541 | 996 | 278 |2541 | 610 | 165 | 515 |5434 | 5.257424e+01 |      --      |    Inf 
(node 2562) unresolved numerical troubles in LP 4564
 1209s|  2600 |   866 |  1783k|  12M|  46 | 188 |2541 |1048 | 727 |2541 | 610 | 165 | 580 |5618 | 5.259909e+01 |      --      |    Inf 
 1226s|  2700 |   901 |  1820k|  12M|  46 |  66 |2541 |1059 | 363 |2541 | 610 | 165 | 606 |5630 | 5.259909e+01 |      --      |    Inf 
(node 2702) unresolved numerical troubles in LP 4751
(node 2720) unresolved numerical troubles in LP 4781
(node 2796) unresolved numerical troubles in LP 4905
 1255s|  2800 |   935 |  1891k|  12M|  46 | 195 |2541 |1071 | 751 |2541 | 610 | 165 | 624 |5674 | 5.259909e+01 |      --      |    Inf 
 1290s|  2900 |   965 |  1945k|  12M|  46 | 214 |2541 |1099 | 866 |2541 | 610 | 165 | 658 |5809 | 5.315979e+01 |      --      |    Inf 
 1319s|  3000 |  1013 |  2002k|  13M|  46 | 107 |2541 |1104 | 372 |2541 | 610 | 165 | 669 |5941 | 5.315979e+01 |      --      |    Inf 
 1355s|  3100 |  1032 |  2064k|  13M|  46 | 118 |2541 |1111 | 623 |2541 | 610 | 165 | 682 |6050 | 5.315979e+01 |      --      |    Inf 
 1404s|  3200 |  1064 |  2130k|  13M|  47 | 121 |2541 |1139 | 501 |2541 | 610 | 165 | 718 |6289 | 5.332148e+01 |      --      |    Inf 
 1443s|  3300 |  1081 |  2180k|  13M|  47 |  67 |2541 |1153 | 329 |2541 | 610 | 165 | 742 |6421 | 5.332148e+01 |      --      |    Inf 
(node 3388) unresolved numerical troubles in LP 5821
 time | node  | left  |LP iter| mem |mdpt |frac |vars |cons |ccons|cols |rows |cuts |confs|strbr|  dualbound   | primalbound  |  gap   
 1507s|  3400 |  1104 |  2273k|  13M|  47 | 212 |2541 |1159 | 889 |2541 | 610 | 165 | 756 |6536 | 5.337333e+01 |      --      |    Inf 
(node 3408) unresolved numerical troubles in LP 5858
 1555s|  3500 |  1142 |  2356k|  13M|  47 | 129 |2541 |1181 | 568 |2541 | 610 | 165 | 785 |6604 | 5.337333e+01 |      --      |    Inf 
 1593s|  3600 |  1172 |  2419k|  14M|  47 | 149 |2541 |1189 | 756 |2541 | 610 | 165 | 801 |6630 | 5.342163e+01 |      --      |    Inf 
 1622s|  3700 |  1204 |  2461k|  14M|  47 |   - |2541 |1203 | 385 |2541 | 610 | 165 | 821 |6663 | 5.353812e+01 |      --      |    Inf 
 1647s|  3800 |  1222 |  2508k|  14M|  49 | 224 |2541 |1220 | 658 |2541 | 610 | 165 | 850 |6771 | 5.361021e+01 |      --      |    Inf 
 1680s|  3900 |  1248 |  2569k|  14M|  49 | 124 |2541 |1239 | 612 |2541 | 610 | 165 | 876 |6910 | 5.368965e+01 |      --      |    Inf 
 1721s|  4000 |  1279 |  2628k|  14M|  49 | 120 |2541 |1249 | 511 |2541 | 610 | 165 | 902 |7078 | 5.386176e+01 |      --      |    Inf 
(node 4098) unresolved numerical troubles in LP 6812
 1786s|  4100 |  1295 |  2724k|  14M|  49 | 155 |2541 |1250 | 563 |2541 | 610 | 165 | 920 |7343 | 5.405833e+01 |      --      |    Inf 
 1817s|  4200 |  1319 |  2774k|  14M|  49 | 145 |2541 |1258 | 490 |2541 | 610 | 165 | 933 |7409 | 5.405833e+01 |      --      |    Inf 
 1853s|  4300 |  1340 |  2833k|  15M|  49 | 145 |2541 |1272 | 642 |2541 | 610 | 165 | 956 |7539 | 5.405833e+01 |      --      |    Inf 
 1877s|  4400 |  1352 |  2872k|  15M|  49 | 108 |2541 |1278 | 462 |2541 | 610 | 165 | 971 |7591 | 5.405833e+01 |      --      |    Inf 
 1901s|  4500 |  1370 |  2918k|  15M|  49 | 165 |2541 |1291 | 487 |2541 | 610 | 165 | 997 |7712 | 5.405833e+01 |      --      |    Inf 
(node 4546) unresolved numerical troubles in LP 7487
 1925s|  4600 |  1390 |  2977k|  15M|  64 |  98 |2541 |1309 | 366 |2541 | 610 | 165 |1026 |7727 | 5.405833e+01 |      --      |    Inf 
 1978s|  4700 |  1415 |  3054k|  15M|  64 | 115 |2541 |1325 | 433 |2541 | 610 | 165 |1060 |7862 | 5.405833e+01 |      --      |    Inf 
 2019s|  4800 |  1438 |  3114k|  15M|  64 |   - |2541 |1330 | 582 |2541 | 610 | 165 |1076 |7865 | 5.405833e+01 |      --      |    Inf 
 time | node  | left  |LP iter| mem |mdpt |frac |vars |cons |ccons|cols |rows |cuts |confs|strbr|  dualbound   | primalbound  |  gap   
 2034s|  4900 |  1462 |  3143k|  15M|  64 | 110 |2541 |1336 | 385 |2541 | 610 | 165 |1087 |7871 | 5.405833e+01 |      --      |    Inf 
 2048s|  5000 |  1487 |  3174k|  15M|  64 |   - |2541 |1350 | 341 |2541 | 610 | 165 |1105 |7893 | 5.425685e+01 |      --      |    Inf 
 2067s|  5100 |  1502 |  3207k|  16M|  64 |  86 |2541 |1365 | 352 |2541 | 610 | 165 |1123 |7960 | 5.425685e+01 |      --      |    Inf 
 2110s|  5200 |  1516 |  3264k|  16M|  64 | 129 |2541 |1369 | 497 |2541 | 610 | 165 |1157 |8100 | 5.425685e+01 |      --      |    Inf 
 2148s|  5300 |  1533 |  3323k|  16M|  64 | 143 |2541 |1361 | 536 |2541 | 610 | 165 |1178 |8224 | 5.459504e+01 |      --      |    Inf 
 2180s|  5400 |  1545 |  3371k|  16M|  64 |  89 |2541 |1365 | 369 |2541 | 610 | 165 |1187 |8354 | 5.459504e+01 |      --      |    Inf 
(node 5485) unresolved numerical troubles in LP 8642
 2242s|  5500 |  1566 |  3485k|  16M|  64 |  91 |2541 |1358 | 477 |2541 | 610 | 165 |1210 |8570 | 5.470441e+01 |      --      |    Inf 
 2291s|  5600 |  1571 |  3565k|  16M|  64 | 175 |2541 |1359 | 572 |2541 | 610 | 165 |1237 |8756 | 5.488074e+01 |      --      |    Inf 
 2339s|  5700 |  1597 |  3653k|  16M|  64 |   - |2541 |1350 | 582 |   0 |   0 | 165 |1248 |8813 | 5.498628e+01 |      --      |    Inf 
 2379s|  5800 |  1615 |  3724k|  16M|  64 |  86 |2541 |1346 | 396 |2541 | 610 | 165 |1262 |8840 | 5.510510e+01 |      --      |    Inf 
 2413s|  5900 |  1635 |  3768k|  16M|  64 |   - |2541 |1348 | 397 |2541 | 610 | 165 |1279 |8863 | 5.510510e+01 |      --      |    Inf 
 2439s|  6000 |  1657 |  3813k|  16M|  64 |  93 |2541 |1350 | 408 |2541 | 610 | 165 |1285 |8882 | 5.510510e+01 |      --      |    Inf 
 2479s|  6100 |  1674 |  3887k|  17M|  64 | 193 |2541 |1327 | 805 |2541 | 610 | 165 |1312 |8998 | 5.541667e+01 |      --      |    Inf 
 2510s|  6200 |  1704 |  3944k|  17M|  64 |  98 |2541 |1315 | 392 |2541 | 610 | 165 |1316 |9004 | 5.544652e+01 |      --      |    Inf 
(node 6245) unresolved numerical troubles in LP 9629
 2567s|  6300 |  1728 |  4013k|  17M|  64 | 140 |2541 |1338 | 590 |2541 | 610 | 165 |1350 |9023 | 5.551989e+01 |      --      |    Inf 
 time | node  | left  |LP iter| mem |mdpt |frac |vars |cons |ccons|cols |rows |cuts |confs|strbr|  dualbound   | primalbound  |  gap   
 2619s|  6400 |  1742 |  4072k|  17M|  64 | 149 |2541 |1348 | 445 |2541 | 610 | 165 |1376 |9038 | 5.565313e+01 |      --      |    Inf 
 2645s|  6500 |  1763 |  4116k|  17M|  64 | 116 |2541 |1356 | 374 |2541 | 610 | 165 |1398 |9045 | 5.576344e+01 |      --      |    Inf 
 2668s|  6600 |  1790 |  4155k|  17M|  64 |  83 |2541 |1363 | 345 |2541 | 610 | 165 |1424 |9063 | 5.577924e+01 |      --      |    Inf 
 2698s|  6700 |  1793 |  4207k|  17M|  64 | 160 |2541 |1364 | 454 |2541 | 610 | 165 |1450 |9166 | 5.577924e+01 |      --      |    Inf 
 2773s|  6800 |  1804 |  4310k|  17M|  64 | 142 |2541 |1323 | 510 |2541 | 610 | 165 |1471 |9387 | 5.581475e+01 |      --      |    Inf 
 2811s|  6900 |  1823 |  4369k|  18M|  64 | 123 |2541 |1322 | 659 |2541 | 610 | 165 |1515 |9525 | 5.581475e+01 |      --      |    Inf 
 2853s|  7000 |  1840 |  4443k|  18M|  64 |  81 |2541 |1295 | 592 |2541 | 610 | 165 |1528 |9679 | 5.604185e+01 |      --      |    Inf 
(node 7023) unresolved numerical troubles in LP 10591
(node 7024) unresolved numerical troubles in LP 10599
 2909s|  7100 |  1856 |  4543k|  18M|  64 | 110 |2541 |1263 | 505 |2541 | 610 | 165 |1542 |9799 | 5.607569e+01 |      --      |    Inf 
 2950s|  7200 |  1862 |  4613k|  18M|  64 |   - |2541 |1244 | 374 |2541 | 610 | 165 |1584 |9975 | 5.636967e+01 |      --      |    Inf 
(node 7208) unresolved numerical troubles in LP 10826
 2978s|  7300 |  1871 |  4680k|  18M|  64 |   - |2541 |1216 | 589 |2541 | 610 | 165 |1598 |  10k| 5.646871e+01 |      --      |    Inf 
(node 7363) unresolved numerical troubles in LP 11043
(node 7374) unresolved numerical troubles in LP 11064
 3037s|  7400 |  1881 |  4791k|  18M|  64 |   - |2541 |1186 | 367 |2541 | 610 | 165 |1607 |  10k| 5.663229e+01 |      --      |    Inf 
(node 7428) unresolved numerical troubles in LP 11150
 3093s|  7500 |  1889 |  4891k|  18M|  64 |   - |2541 |1158 | 419 |2541 | 610 | 165 |1620 |  10k| 5.663229e+01 |      --      |    Inf 
 3144s|  7600 |  1905 |  4970k|  18M|  64 |   - |2541 |1158 | 457 |   0 |   0 | 165 |1648 |  10k| 5.673447e+01 |      --      |    Inf 
 3236s|  7700 |  1915 |  5091k|  19M|  64 |   - |2541 |1137 | 579 |2541 | 610 | 165 |1669 |  10k| 5.709817e+01 |      --      |    Inf 
 3313s|  7800 |  1929 |  5195k|  19M|  64 | 127 |2541 |1127 | 412 |2541 | 610 | 165 |1687 |  10k| 5.716230e+01 |      --      |    Inf 
 time | node  | left  |LP iter| mem |mdpt |frac |vars |cons |ccons|cols |rows |cuts |confs|strbr|  dualbound   | primalbound  |  gap   
 3388s|  7900 |  1943 |  5305k|  19M|  64 |   - |2541 |1105 | 400 |2541 | 610 | 165 |1695 |  10k| 5.716230e+01 |      --      |    Inf 
 3417s|  8000 |  1965 |  5336k|  19M|  64 |  86 |2541 |1111 | 362 |2541 | 610 | 165 |1725 |  10k| 5.716259e+01 |      --      |    Inf 
 3469s|  8100 |  1973 |  5422k|  19M|  64 |   - |2541 |1109 | 616 |   0 |   0 | 165 |1744 |  11k| 5.719744e+01 |      --      |    Inf 
 3486s|  8200 |  1989 |  5452k|  19M|  64 | 103 |2541 |1107 | 310 |2541 | 610 | 165 |1751 |  11k| 5.719744e+01 |      --      |    Inf 
 3514s|  8300 |  1995 |  5496k|  19M|  64 | 121 |2541 |1098 | 354 |2541 | 610 | 165 |1756 |  11k| 5.724865e+01 |      --      |    Inf 
 3533s|  8400 |  2012 |  5526k|  19M|  64 | 118 |2541 |1103 | 350 |2541 | 610 | 165 |1763 |  11k| 5.724865e+01 |      --      |    Inf 
 3552s|  8500 |  2030 |  5556k|  19M|  64 |   - |2541 |1104 | 221 |2541 | 610 | 165 |1775 |  11k| 5.737612e+01 |      --      |    Inf 
 3561s|  8600 |  2044 |  5572k|  19M|  64 |  96 |2541 |1107 | 336 |2541 | 610 | 165 |1781 |  11k| 5.737612e+01 |      --      |    Inf 
 3577s|  8700 |  2046 |  5606k|  19M|  64 | 131 |2541 |1126 | 401 |2541 | 610 | 165 |1806 |  11k| 5.738994e+01 |      --      |    Inf 
 3595s|  8800 |  2062 |  5633k|  19M|  64 |   - |2541 |1132 | 234 |2541 | 610 | 165 |1817 |  11k| 5.738994e+01 |      --      |    Inf 
 3611s|  8900 |  2076 |  5662k|  19M|  64 |   - |2541 |1130 | 269 |2541 | 610 | 165 |1820 |  11k| 5.738994e+01 |      --      |    Inf 
(node 8952) unresolved numerical troubles in LP 12960
(node 8956) unresolved numerical troubles in LP 12971
(node 8975) unresolved numerical troubles in LP 13003
(node 8984) unresolved numerical troubles in LP 13028
 3667s|  9000 |  2079 |  5759k|  20M|  64 | 247 |2541 |1094 | 800 |2541 | 610 | 165 |1832 |  11k| 5.738994e+01 |      --      |    Inf 
 3744s|  9100 |  2087 |  5883k|  20M|  64 | 148 |2541 |1044 | 404 |2541 | 610 | 165 |1848 |  11k| 5.738994e+01 |      --      |    Inf 
 3783s|  9200 |  2093 |  5943k|  20M|  64 |   - |2541 |1041 | 294 |2541 | 610 | 165 |1866 |  11k| 5.742304e+01 |      --      |    Inf 
(node 9252) unresolved numerical troubles in LP 13391
 3831s|  9300 |  2091 |  6034k|  20M|  64 | 111 |2541 |1026 | 360 |2541 | 610 | 165 |1886 |  11k| 5.760924e+01 |      --      |    Inf 
 time | node  | left  |LP iter| mem |mdpt |frac |vars |cons |ccons|cols |rows |cuts |confs|strbr|  dualbound   | primalbound  |  gap   
 3883s|  9400 |  2097 |  6111k|  20M|  64 | 132 |2541 |1023 | 372 |2541 | 610 | 165 |1907 |  11k| 5.760924e+01 |      --      |    Inf 
 3921s|  9500 |  2107 |  6168k|  20M|  64 |   - |2541 |1024 | 316 |2541 | 610 | 165 |1923 |  11k| 5.760924e+01 |      --      |    Inf 
(node 9559) unresolved numerical troubles in LP 13773
 4020s|  9600 |  2113 |  6293k|  20M|  64 | 152 |2541 |1013 | 447 |2541 | 610 | 165 |1936 |  11k| 5.764958e+01 |      --      |    Inf 
 4101s|  9700 |  2107 |  6400k|  20M|  64 | 191 |2541 | 997 | 523 |2541 | 610 | 165 |1955 |  12k| 5.768997e+01 |      --      |    Inf 
 4176s|  9800 |  2112 |  6510k|  20M|  64 | 145 |2541 | 999 | 435 |2541 | 610 | 165 |1976 |  12k| 5.776467e+01 |      --      |    Inf 
 4217s|  9900 |  2124 |  6583k|  20M|  64 | 100 |2541 |1022 | 352 |2541 | 610 | 165 |2009 |  12k| 5.776467e+01 |      --      |    Inf 
 4248s| 10000 |  2122 |  6651k|  21M|  64 | 133 |2541 |1021 | 354 |2541 | 610 | 165 |2034 |  12k| 5.786160e+01 |      --      |    Inf 
 4298s| 10100 |  2136 |  6729k|  21M|  64 |   - |2541 |1007 | 382 |2541 | 610 | 165 |2035 |  12k| 5.788213e+01 |      --      |    Inf 
(node 10193) unresolved numerical troubles in LP 14519
(node 10200) unresolved numerical troubles in LP 14536
 4389s| 10200 |  2140 |  6868k|  21M|  64 |   - |2541 |1004 | 551 |2541 | 610 | 165 |2056 |  12k| 5.794399e+01 |      --      |    Inf 
 4439s| 10300 |  2146 |  6948k|  21M|  64 | 212 |2541 | 996 | 673 |2541 | 610 | 165 |2071 |  12k| 5.794399e+01 |      --      |    Inf 
 4493s| 10400 |  2147 |  7052k|  21M|  64 |   - |2541 | 998 | 396 |   0 |   0 | 165 |2103 |  12k| 5.807304e+01 |      --      |    Inf 
 4556s| 10500 |  2146 |  7161k|  21M|  64 | 207 |2541 | 976 | 466 |2541 | 610 | 165 |2111 |  13k| 5.811012e+01 |      --      |    Inf 
 4586s| 10600 |  2163 |  7217k|  21M|  64 | 167 |2541 | 987 | 539 |2541 | 610 | 165 |2128 |  13k| 5.811012e+01 |      --      |    Inf 
 4645s| 10700 |  2180 |  7316k|  21M|  64 |   - |2541 | 991 | 346 |2541 | 610 | 165 |2145 |  13k| 5.817098e+01 |      --      |    Inf 
 4697s| 10800 |  2191 |  7399k|  21M|  64 |   - |2541 |1011 | 325 |2541 | 610 | 165 |2178 |  13k| 5.820985e+01 |      --      |    Inf 
(node 10813) unresolved numerical troubles in LP 15322
 time | node  | left  |LP iter| mem |mdpt |frac |vars |cons |ccons|cols |rows |cuts |confs|strbr|  dualbound   | primalbound  |  gap   
 4742s| 10900 |  2205 |  7482k|  21M|  64 | 129 |2541 |1002 | 481 |2541 | 610 | 165 |2208 |  13k| 5.828896e+01 |      --      |    Inf 
 4799s| 11000 |  2208 |  7572k|  22M|  64 | 198 |2541 | 995 | 461 |2541 | 610 | 165 |2233 |  13k| 5.868556e+01 |      --      |    Inf 
(node 11087) unresolved numerical troubles in LP 15682
 4873s| 11100 |  2211 |  7683k|  22M|  64 |   - |2541 | 993 | 367 |2541 | 610 | 165 |2245 |  13k| 5.868556e+01 |      --      |    Inf 
 4923s| 11200 |  2224 |  7773k|  22M|  64 |   - |2541 | 990 | 408 |2541 | 610 | 165 |2257 |  13k| 5.876677e+01 |      --      |    Inf 
 4998s| 11300 |  2222 |  7899k|  22M|  64 |   - |2541 | 978 | 395 |2541 | 610 | 165 |2263 |  13k| 5.879059e+01 |      --      |    Inf 
(node 11315) unresolved numerical troubles in LP 15990
 5102s| 11400 |  2219 |  8042k|  22M|  64 |   - |2541 | 977 | 301 |2541 | 610 | 165 |2278 |  13k| 5.879059e+01 |      --      |    Inf 
 5175s| 11500 |  2222 |  8161k|  22M|  64 | 112 |2541 | 974 | 358 |2541 | 610 | 165 |2306 |  14k| 5.900780e+01 |      --      |    Inf 
(node 11590) unresolved numerical troubles in LP 16354
 5264s| 11600 |  2208 |  8297k|  22M|  64 |   - |2541 | 973 | 312 |2541 | 610 | 165 |2332 |  14k| 5.906731e+01 |      --      |    Inf 
 5352s| 11700 |  2206 |  8407k|  22M|  64 | 134 |2541 | 965 | 473 |2541 | 610 | 165 |2348 |  14k| 5.920712e+01 |      --      |    Inf 
 5426s| 11800 |  2195 |  8532k|  22M|  64 | 151 |2541 | 967 | 482 |2541 | 610 | 165 |2373 |  14k| 5.920712e+01 |      --      |    Inf 
 5473s| 11900 |  2185 |  8621k|  22M|  64 | 130 |2541 | 992 | 415 |2541 | 610 | 165 |2420 |  14k| 5.923752e+01 |      --      |    Inf 
 5518s| 12000 |  2182 |  8705k|  22M|  64 |   - |2541 |1000 | 379 |2541 | 610 | 165 |2444 |  14k| 5.943199e+01 |      --      |    Inf 
 5592s| 12100 |  2166 |  8824k|  22M|  64 |   - |2541 |1016 | 474 |   0 |   0 | 165 |2487 |  14k| 5.946759e+01 |      --      |    Inf 
 5647s| 12200 |  2155 |  8928k|  22M|  64 | 118 |2541 |1012 | 393 |2541 | 610 | 165 |2505 |  14k| 5.956900e+01 |      --      |    Inf 
 5691s| 12300 |  2159 |  9001k|  22M|  64 |   - |2541 |1011 | 363 |2541 | 610 | 165 |2518 |  14k| 5.958324e+01 |      --      |    Inf 
 time | node  | left  |LP iter| mem |mdpt |frac |vars |cons |ccons|cols |rows |cuts |confs|strbr|  dualbound   | primalbound  |  gap   
 5758s| 12400 |  2146 |  9110k|  23M|  64 |   - |2541 | 999 | 406 |2541 | 610 | 165 |2538 |  14k| 5.963373e+01 |      --      |    Inf 
 5829s| 12500 |  2143 |  9213k|  23M|  64 | 151 |2541 |1018 | 418 |2541 | 610 | 165 |2578 |  15k| 5.963373e+01 |      --      |    Inf 
 5920s| 12600 |  2124 |  9336k|  23M|  64 | 107 |2541 |1035 | 443 |2541 | 610 | 165 |2614 |  15k| 5.971773e+01 |      --      |    Inf 
 5979s| 12700 |  2131 |  9419k|  23M|  64 |   - |2541 |1071 | 386 |   0 |   0 | 165 |2668 |  15k| 5.972271e+01 |      --      |    Inf 
 6041s| 12800 |  2131 |  9510k|  23M|  64 |   - |2541 |1092 | 438 |   0 |   0 | 165 |2721 |  15k| 5.972271e+01 |      --      |    Inf 
(node 12856) unresolved numerical troubles in LP 17822
 6103s| 12900 |  2109 |  9629k|  23M|  64 | 177 |2541 |1089 | 799 |2541 | 610 | 165 |2756 |  15k| 5.987100e+01 |      --      |    Inf 
 6151s| 13000 |  2098 |  9721k|  23M|  64 |   - |2541 |1089 | 348 |2541 | 610 | 165 |2782 |  15k| 5.996058e+01 |      --      |    Inf 
 6204s| 13100 |  2069 |  9816k|  23M|  64 |   - |2541 |1097 | 398 |2541 | 610 | 165 |2810 |  15k| 6.020139e+01 |      --      |    Inf 
 6243s| 13200 |  2076 |  9899k|  23M|  64 |   - |2541 |1129 | 407 |   0 |   0 | 165 |2853 |  15k| 6.020139e+01 |      --      |    Inf 
 6307s| 13300 |  2074 |  9999k|  23M|  64 | 109 |2541 |1164 | 393 |2541 | 610 | 165 |2907 |  15k| 6.036259e+01 |      --      |    Inf 
 6357s| 13400 |  2051 | 10093k|  23M|  64 | 204 |2541 |1152 | 530 |2541 | 610 | 165 |2924 |  15k| 6.058227e+01 |      --      |    Inf 
 6425s| 13500 |  2041 | 10199k|  24M|  64 |   - |2541 |1157 | 364 |2541 | 610 | 165 |2942 |  15k| 6.075885e+01 |      --      |    Inf 
 6475s| 13600 |  2038 | 10276k|  24M|  64 | 209 |2541 |1186 | 450 |2541 | 610 | 165 |2990 |  16k| 6.102192e+01 |      --      |    Inf 
 6533s| 13700 |  2013 | 10376k|  24M|  64 | 188 |2541 |1217 | 432 |2541 | 610 | 165 |3042 |  16k| 6.119811e+01 |      --      |    Inf 
 6621s| 13800 |  1985 | 10523k|  24M|  64 | 154 |2541 |1201 | 488 |2541 | 610 | 165 |3070 |  16k| 6.152207e+01 |      --      |    Inf 
 time | node  | left  |LP iter| mem |mdpt |frac |vars |cons |ccons|cols |rows |cuts |confs|strbr|  dualbound   | primalbound  |  gap   
 6754s| 13900 |  1934 | 10696k|  24M|  64 | 117 |2541 |1202 | 397 |2541 | 610 | 165 |3116 |  16k| 6.189007e+01 |      --      |    Inf 
(node 13940) unresolved numerical troubles in LP 19096
 6802s| 14000 |  1907 | 10789k|  24M|  64 | 119 |2541 |1201 | 371 |2541 | 610 | 165 |3147 |  16k| 6.205513e+01 |      --      |    Inf 
 6849s| 14100 |  1878 | 10876k|  24M|  64 | 139 |2541 |1196 | 468 |2541 | 610 | 165 |3163 |  16k| 6.205513e+01 |      --      |    Inf 
(node 14114) unresolved numerical troubles in LP 19332
 6890s| 14200 |  1867 | 10962k|  24M|  64 |   - |2541 |1201 | 271 |2541 | 610 | 165 |3175 |  16k| 6.225572e+01 |      --      |    Inf 
 6968s| 14300 |  1835 | 11081k|  24M|  64 |   - |2541 |1191 | 423 |   0 |   0 | 165 |3188 |  16k| 6.262789e+01 |      --      |    Inf 
 7006s| 14400 |  1817 | 11156k|  24M|  64 |   - |2541 |1195 | 319 |2541 | 610 | 165 |3206 |  17k| 6.271098e+01 |      --      |    Inf 
(node 14492) unresolved numerical troubles in LP 19823
 7072s| 14500 |  1767 | 11274k|  23M|  64 | 159 |2541 |1193 | 685 |2541 | 610 | 165 |3227 |  17k| 6.290895e+01 |      --      |    Inf 
(node 14593) unresolved numerical troubles in LP 19952
 7154s| 14600 |  1722 | 11412k|  23M|  64 | 136 |2541 |1193 | 384 |2541 | 610 | 165 |3257 |  17k| 6.358632e+01 |      --      |    Inf 
(node 14607) unresolved numerical troubles in LP 19977
 7214s| 14700 |  1684 | 11519k|  23M|  64 |   - |2541 |1166 | 343 |2541 | 610 | 165 |3263 |  17k| 6.395011e+01 |      --      |    Inf 
 7261s| 14800 |  1656 | 11592k|  23M|  64 | 127 |2541 |1167 | 393 |2541 | 610 | 165 |3278 |  17k| 6.417028e+01 |      --      |    Inf 
 7318s| 14900 |  1589 | 11696k|  23M|  64 | 115 |2541 |1141 | 400 |2541 | 610 | 165 |3285 |  17k| 6.569849e+01 |      --      |    Inf 
 7368s| 15000 |  1549 | 11771k|  23M|  64 |   - |2541 |1140 | 388 |2541 | 610 | 165 |3300 |  17k| 6.594257e+01 |      --      |    Inf 
 7455s| 15100 |  1461 | 11911k|  22M|  64 | 131 |2541 |1138 | 351 |2541 | 610 | 165 |3320 |  17k| 6.751649e+01 |      --      |    Inf 
(node 15162) unresolved numerical troubles in LP 20656
 7512s| 15200 |  1385 | 12026k|  22M|  64 |   - |2541 |1142 | 340 |2541 | 610 | 165 |3347 |  17k| 7.079239e+01 |      --      |    Inf 
 7544s| 15300 |  1370 | 12084k|  22M|  64 |   - |2541 |1138 | 353 |2541 | 610 | 165 |3355 |  17k| 7.239382e+01 |      --      |    Inf 
(node 15321) unresolved numerical troubles in LP 20874
 time | node  | left  |LP iter| mem |mdpt |frac |vars |cons |ccons|cols |rows |cuts |confs|strbr|  dualbound   | primalbound  |  gap   
 7642s| 15400 |  1316 | 12213k|  22M|  64 | 137 |2541 |1134 | 387 |2541 | 610 | 165 |3369 |  17k| 9.047304e+02 |      --      |    Inf 
(node 15412) unresolved numerical troubles in LP 21003
 7673s| 15500 |  1295 | 12286k|  22M|  64 |   - |2541 |1133 | 314 |2541 | 610 | 165 |3377 |  17k| 9.064236e+02 |      --      |    Inf 
 7740s| 15600 |  1245 | 12400k|  22M|  64 |   - |2541 |1134 | 323 |2541 | 610 | 165 |3386 |  17k| 9.078621e+02 |      --      |    Inf 
 7791s| 15700 |  1218 | 12484k|  21M|  64 | 136 |2541 |1140 | 430 |2541 | 610 | 165 |3404 |  17k| 9.087407e+02 |      --      |    Inf 
 7832s| 15800 |  1178 | 12559k|  21M|  64 |   - |2541 |1141 | 632 |   0 |   0 | 165 |3420 |  17k| 9.097244e+02 |      --      |    Inf 
(node 15900) unresolved numerical troubles in LP 21633
 7892s| 15900 |  1137 | 12666k|  21M|  64 |   - |2541 |1140 | 449 |2541 | 610 | 165 |3430 |  18k| 9.141982e+02 |      --      |    Inf 
(node 15962) unresolved numerical troubles in LP 21711
 7974s| 16000 |  1052 | 12771k|  20M|  64 |   - |2541 |1157 | 356 |2541 | 610 | 165 |3458 |  18k| 9.245510e+02 |      --      |    Inf 
 8048s| 16100 |   965 | 12900k|  20M|  64 |  89 |2541 |1161 | 348 |2541 | 610 | 165 |3477 |  18k| 9.346888e+02 |      --      |    Inf 
 8112s| 16200 |   863 | 12981k|  19M|  64 |   - |2541 |1179 | 419 |2541 | 610 | 165 |3508 |  18k| 9.688570e+02 |      --      |    Inf 
 8236s| 16300 |   757 | 13112k|  18M|  64 |   - |2541 |1174 | 273 |2541 | 610 | 165 |3525 |  18k| 1.371622e+03 |      --      |    Inf 
 8295s| 16400 |   664 | 13210k|  17M|  64 |   - |2541 |1185 | 361 |2541 | 610 | 165 |3546 |  18k| 1.549708e+03 |      --      |    Inf 
 8349s| 16500 |   544 | 13298k|  16M|  64 |   - |2541 |1201 | 328 |2541 | 610 | 165 |3581 |  18k| 1.950442e+03 |      --      |    Inf 
 8394s| 16600 |   374 | 13376k|  14M|  64 |   - |2541 |1208 | 391 |2541 | 610 | 165 |3598 |  18k| 2.120891e+03 |      --      |    Inf 
 8420s| 16700 |   218 | 13423k|  12M|  64 |   - |2541 |1218 | 260 |   0 |   0 | 165 |3621 |  18k| 3.076714e+03 |      --      |    Inf 
 8462s| 16800 |    31 | 13488k|9444k|  64 |   - |2541 |1219 | 342 |2541 | 610 | 165 |3635 |  18k| 4.655298e+03 |      --      |    Inf 

SCIP Status        : problem is solved [infeasible]
Solving Time (sec) : 8461.90
Solving Nodes      : 16805
Primal Bound       : +1.00000000000000e+20 (0 solutions)
Dual Bound         : +1.00000000000000e+20
Gap                : 0.00 %

primal solution:
================

no solution available

Statistics
==========

SCIP Status        : problem is solved [infeasible]
Solving Time       :    8461.90
Original Problem   :
  Problem name     : labtel
  Variables        : 2546 (1281 binary, 0 integer, 0 implicit integer, 1265 continuous)
  Constraints      : 532 initial, 532 maximal
Presolved Problem  :
  Problem name     : t_labtel
  Variables        : 2541 (1281 binary, 0 integer, 0 implicit integer, 1260 continuous)
  Constraints      : 528 initial, 1375 maximal
Presolvers         :       Time  FixedVars   AggrVars   ChgTypes  ChgBounds   AddHoles    DelCons   ChgSides   ChgCoefs
  trivial          :       0.00          0          0          0          0          0          0          0          0
  dualfix          :       0.00          0          0          0          0          0          0          0          0
  boundshift       :       0.00          0          0          0          0          0          0          0          0
  inttobinary      :       0.00          0          0          0          0          0          0          0          0
  implics          :       0.00          0          0          0          0          0          0          0          0
  probing          :       0.45          0          0          0          0          0          0          0          0
  knapsack         :       0.00          0          0          0          0          0          0          0          0
  setppc           :       0.00          0          0          0          0          0          0          0          0
  linear           :       0.04          0          5          0        154          0          4          3        180
  logicor          :       0.00          0          0          0          0          0          0          0          0
  root node        :          -          0          -          -          0          -          -          -          -
Constraints        :     Number  #Separate #Propagate    #EnfoLP    #EnfoPS    Cutoffs    DomReds       Cuts      Conss   Children
  integral         :          0          0          0       9089          0          0         87          0          0      18050
  knapsack         :          1         11      66824          0         46          0          0          0          0          0
  setppc           :        210         11      66824          0         46        211    1763562          0          0          0
  linear           :        317         11      66613          0          0        829    1881153          1          0          0
  logicor          :          0+         0      26714          0          0        609      15660          0          0          0
  countsols        :          0          0          0          0         46          0          0          0          0          0
Constraint Timings :  TotalTime   Separate  Propagate     EnfoLP     EnfoPS
  integral         :     848.41       0.00       0.00     848.41       0.00
  knapsack         :       0.14       0.00       0.14       0.00       0.00
  setppc           :      11.46       0.00      11.46       0.00       0.00
  linear           :      46.70       0.11      46.59       0.00       0.00
  logicor          :       2.15       0.00       2.15       0.00       0.00
  countsols        :       0.00       0.00       0.00       0.00       0.00
Propagators        :       Time      Calls    Cutoffs    DomReds
  rootredcost      :       0.10          0          0          0
  pseudoobj        :       9.28      66307          0          0
Conflict Analysis  :       Time      Calls    Success  Conflicts   Literals    Reconvs ReconvLits   LP Iters
  propagation      :       0.29       1649       1635       5908       48.8         20       45.0          -
  infeasible LP    :      19.58       6422        224       1893      105.7          3       31.0          0
  bound exceed. LP :       0.00          0          0          0        0.0          0        0.0          0
  strong branching :       0.00          0          0          0        0.0          0        0.0          0
  pseudo solution  :       0.00          0          0          0        0.0          0        0.0          -
  applied globally :          -          -          -       3640       28.4          -          -          -
  applied locally  :          -          -          -          0        0.0          -          -          -
Separators         :       Time      Calls    Cutoffs    DomReds       Cuts      Conss
  cut pool         :       0.01         10          -          -         12          -    (maximal pool size: 246)
  redcost          :       1.65       9099          0          0          0          0
  impliedbounds    :       0.00         11          0          0          0          0
  intobj           :       0.00          0          0          0          0          0
  gomory           :       0.15         11          0          0          7          0
  strongcg         :       0.08         11          0          0          1          0
  cmir             :       7.29         10          0          0        229          0
  flowcover        :       0.78         10          0          0         13          0
  clique           :       0.04         11          0          0          0          0
  zerohalf         :       0.00          0          0          0          0          0
  mcf              :       0.00          0          0          0          0          0
Pricers            :       Time      Calls       Vars
  problem variables:       0.00          0          0
Branching Rules    :       Time      Calls    Cutoffs    DomReds       Cuts      Conss   Children
  relpscost        :     848.27       9089          0         87          0          0      18050
  pscost           :       0.00          0          0          0          0          0          0
  inference        :       0.03         46          0          0          0          0         92
  mostinf          :       0.00          0          0          0          0          0          0
  leastinf         :       0.00          0          0          0          0          0          0
  fullstrong       :       0.00          0          0          0          0          0          0
  allfullstrong    :       0.00          0          0          0          0          0          0
  random           :       0.00          0          0          0          0          0          0
Primal Heuristics  :       Time      Calls      Found
  LP solutions     :       0.00          -          0
  pseudo solutions :       0.00          -          0
  oneopt           :       0.06          0          0
  crossover        :       0.01          0          0
  guideddiving     :       0.00          0          0
  fracdiving       :      13.49          5          0
  veclendiving     :       5.13          5          0
  linesearchdiving :       8.03          5          0
  objpscostdiving  :       3.24          3          0
  rootsoldiving    :       9.16          3          0
  feaspump         :       4.42          3          0
  coefdiving       :      57.19          6          0
  pscostdiving     :       9.19          6          0
  simplerounding   :       0.07          0          0
  rounding         :       0.34       1288          0
  shifting         :       2.23        398          0
  intshifting      :       0.33          7          0
  fixandinfer      :       0.00          0          0
  intdiving        :       0.00          0          0
  actconsdiving    :       0.00          0          0
  octane           :       0.00          0          0
  rens             :       4.23          1          0
  rins             :       0.00          0          0
  localbranching   :       0.00          0          0
  mutation         :       0.00          0          0
  dins             :       0.00          0          0
LP                 :       Time      Calls Iterations  Iter/call   Iter/sec
  primal LP        :     125.60        230     346600    1506.96    2759.55
  dual LP          :    7200.39      20940   12989427     620.32    1803.99
  barrier LP       :       0.00          0          0       0.00          -
  diving/probing LP:     104.07       1526     153601     100.66    1475.94
  strong branching :     845.96      18719    2061561     110.13    2436.95
    (at root node) :          -         17       2491     146.53          -
  conflict analysis:       0.00          0          0       0.00          -
B&B Tree           :
  number of runs   :          1
  nodes            :      16805
  nodes (total)    :      16805
  nodes left       :          0
  max depth        :         64
  max depth (total):         64
  backtracks       :       2995 (17.8%)
  delayed cutoffs  :       1338
  repropagations   :       8915 (406144 domain reductions, 232 cutoffs)
  avg switch length:       7.97
  switching time   :      31.77
Solution           :
  Solutions found  :          0 (0 improvements)
  Primal Bound     : infeasible
  Dual Bound       :          -
  Gap              :       0.00 %
  Root Dual Bound  : +4.96623290241954e+01
